Route 1: 0 4 7 16 35 97 62 44 40 0
Route 2: 0 21 59 15 78 91 11 92 80 61 0
Route 3: 0 34 14 83 32 84 93 41 0
Route 4: 0 69 95 64 56 55 8 33 5 0
Route 5: 0 42 50 23 70 6 37 98 29 38 26 0
Route 6: 0 90 25 77 54 3 87 74 31 75 0
Route 7: 0 85 99 96 45 22 76 13 63 0
Route 8: 0 43 30 28 72 57 89 49 27 39 68 94 0
Route 9: 0 71 19 24 79 36 2 48 0
Route 10: 0 66 1 58 52 51 47 10 20 81 17 0
Route 11: 0 100 73 65 12 60 67 9 53 82 0
Route 12: 0 86 18 46 88 0
